db/data/2610723778128383016710450101351894914572.z3.out
sat
-------------------
2371.646029218
